NAME : toy_inst
COMMENT : Based on wikipedia example
TYPE : TSP
DIMENSION : 6
EDGE_WEIGHT_TYPE : EUC_2D
NODE_COORD_SECTION
    1    1    7
    2    5    7
    3    3    5
    4    3    2
    5    1    0
    6    5    0
EOF
